language ESSENCE' 1.0
letting lastdx=89
letting cage be [
[42,15,12,14,12,13,12,13,13,0,0],
[11,10,2,10,3,0,0, 0,0, 0,0],
[9,4,8,0,0, 0,0, 0,0, 0,0],
[27,6,11,6,10,5,10,0,0, 0,0],
[12,6,4,0,0, 0,0, 0,0, 0,0],
[3,13,11,0,0, 0,0, 0,0, 0,0],
[49,5,14,5,15,5,16,4,16,0,0],
[42,14,10,14,9,15,9,15,10,16,10],
[33,4,10,4,11,3,11,2,11,2,10],
[15,14,8,0,0, 0,0, 0,0, 0,0],
[44,14,11,15,11,16,11,16,12,16,13],
[48,11,3,11,4,10,4,9,4,8,4],
[14,11,9,11,10,0,0, 0,0, 0,0],
[45,1,11,1,10,1,9,2,9,0,0],
[1,8,13,0,0, 0,0, 0,0, 0,0],
[4,8,8,0,0, 0,0, 0,0, 0,0],
[19,8,7,7,7,7,8,0,0, 0,0],
[10,2,8,0,0, 0,0, 0,0, 0,0],
[42,3,10,3,9,4,9,5,9,6,9],
[47,1,2,1,3,2,3,2,4,2,5],
[27,11,8,11,7,11,6,0,0, 0,0],
[32,12,7,12,8,12,9,0,0, 0,0],
[11,4,15,3,15,0,0, 0,0, 0,0],
[42,15,16,14,16,13,16,13,15,13,14],
[26,13,6,13,5,12,5,12,6,12,4],
[38,11,1,10,1,9,1,9,2,8,2],
[16,10,8,0,0, 0,0, 0,0, 0,0],
[21,5,5,5,4,5,3,6,3,0,0],
[4,16,5,0,0, 0,0, 0,0, 0,0],
[47,1,7,1,8,1,6,2,6,2,7],
[20,3,1,3,2,0,0, 0,0, 0,0],
[3,6,5,0,0, 0,0, 0,0, 0,0],
[5,5,7,0,0, 0,0, 0,0, 0,0],
[28,9,11,8,11,0,0, 0,0, 0,0],
[15,9,9,8,9,0,0, 0,0, 0,0],
[47,13,3,12,3,12,2,11,2,12,1],
[21,3,6,3,7,3,8,0,0, 0,0],
[31,8,1,7,1,0,0, 0,0, 0,0],
[10,16,15,16,16,0,0, 0,0, 0,0],
[7,13,9,0,0, 0,0, 0,0, 0,0],
[10,5,6,0,0, 0,0, 0,0, 0,0],
[21,14,15,15,15,0,0, 0,0, 0,0],
[24,15,13,15,14,16,14,0,0, 0,0],
[10,15,7,14,7,0,0, 0,0, 0,0],
[6,16,1,16,2,15,2,0,0, 0,0],
[39,9,6,8,6,8,5,9,5,0,0],
[40,1,13,2,13,2,14,2,15,0,0],
[23,1,16,2,16,3,16,0,0, 0,0],
[14,14,2,14,3,0,0, 0,0, 0,0],
[10,10,16,0,0, 0,0, 0,0, 0,0],
[10,7,14,0,0, 0,0, 0,0, 0,0],
[28,9,12,10,12,11,12,11,11,0,0],
[29,2,1,1,1,2,2,0,0, 0,0],
[34,9,10,10,10,10,9,10,11,0,0],
[1,7,4,0,0, 0,0, 0,0, 0,0],
[27,16,8,15,8,16,9,0,0, 0,0],
[35,7,16,8,16,8,15,7,15,0,0],
[36,6,15,6,16,6,14,6,13,6,12],
[37,6,2,6,1,5,1,5,2,0,0],
[5,11,16,0,0, 0,0, 0,0, 0,0],
[12,10,14,0,0, 0,0, 0,0, 0,0],
[3,4,12,0,0, 0,0, 0,0, 0,0],
[10,11,13,11,14,0,0, 0,0, 0,0],
[30,16,4,16,3,15,3,0,0, 0,0],
[36,13,1,13,2,14,1,15,1,0,0],
[6,8,14,0,0, 0,0, 0,0, 0,0],
[40,10,13,9,13,9,14,9,15,9,16],
[29,5,12,5,11,5,13,0,0, 0,0],
[7,12,16,0,0, 0,0, 0,0, 0,0],
[23,4,3,4,2,4,1,0,0, 0,0],
[41,12,15,12,14,12,13,12,12,12,11],
[30,7,12,7,13,8,12,0,0, 0,0],
[10,4,7,4,6,0,0, 0,0, 0,0],
[34,7,6,7,5,6,6,0,0, 0,0],
[12,2,12,1,12,0,0, 0,0, 0,0],
[8,1,14,1,15,0,0, 0,0, 0,0],
[10,1,4,1,5,0,0, 0,0, 0,0],
[16,3,3,3,4,0,0, 0,0, 0,0],
[13,5,8,0,0, 0,0, 0,0, 0,0],
[22,6,7,6,8,0,0, 0,0, 0,0],
[8,7,9,0,0, 0,0, 0,0, 0,0],
[14,7,10,7,11,8,10,0,0, 0,0],
[14,9,7,9,8,0,0, 0,0, 0,0],
[34,10,5,11,5,10,6,10,7,0,0],
[27,10,15,11,15,0,0, 0,0, 0,0],
[13,12,10,13,10,0,0, 0,0, 0,0],
[29,13,4,14,4,0,0, 0,0, 0,0],
[22,13,7,13,8,0,0, 0,0, 0,0],
[21,14,13,14,14,0,0, 0,0, 0,0],
[23,16,6,16,7,0,0, 0,0, 0,0]
]
